c Sudoku solution
p cnf 729 0
157 0
173 0
186 0
213 0
231 0
324 0
332 0
398 0
433 0
466 0
474 0
534 0
548 0
592 0
663 0
583 0
671 0
735 0
758 0
797 0
812 0
847 0
567 0
856 0
943 0
723 0
893 0
353 0
978 0
985 0
879 0
865 0
884 0
821 0
838 0
139 0
996 0
781 0
772 0
716 0
914 0
937 0
929 0
226 0
317 0
346 0
268 0
375 0
576 0
636 0
525 0
115 0
128 0
277 0
282 0
389 0
191 0
294 0
361 0
441 0
559 0
511 0
951 0
962 0
654 0
452 0
645 0
427 0
622 0
495 0
699 0
488 0
687 0
419 0
618 0
142 0
164 0
744 0
769 0
249 0
255 0
